ALGO = Fast
EDIFF = 0.0001
ENCUT = 520
IBRION = 2
ISIF = 3
ISMEAR = 0
ISPIN = 2
ISYM = 0
LASPH = True
LORBIT = 11
LREAL = False
LWAVE = False
MAGMOM = 2*0.6
NCORE = 4
NELM = 100
NSW = 0
PREC = Accurate
PSTRESS = 0
SIGMA = 0.05
