pymatgen with grid density = 496 / number of atoms
0
Monkhorst
6 6 6
