C2
1.0
   4.0000000000000000    0.0000000000000000    0.0000000000000000
   0.0000000000000000    4.0000000000000000    0.0000000000000000
   0.0000000000000000    0.0000000000000000    4.0000000000000000
C
2
direct
   0.0000000000000000    0.0000000000000000    0.0000000000000000 C
   0.5000000000000000    0.5000000000000000    0.5000000000000000 C
